NAME : instances/clustered-mixed-tsp/instance-29.tsp
COMMENT : No Comment
TYPE : TSP
DIMENSION: 42
EDGE_WEIGHT_TYPE : EUC_2D
NODE_COORD_SECTION
1 850 759 
2 1173 1626 
3 1122 1244 
4 1362 1893 
5 3002 2371 
6 2878 988 
7 1152 2091 
8 3198 2154 
9 2475 660 
10 3020 828 
11 1500 2047 
12 2665 495 
13 854 720 
14 1022 2518 
15 1068 2079 
16 4527 2397 
17 854 1095 
18 1062 2200 
19 2798 995 
20 915 1089 
21 2829 1077 
22 3166 742 
23 933 831 
24 3015 961 
25 1204 1240 
26 2477 868 
27 970 1260 
28 3235 2335 
29 2481 725 
30 1278 1706 
31 1161 2269 
32 1379 2099 
33 1220 929 
34 1055 2058 
35 828 951 
36 2542 498 
37 4701 2506 
38 1091 1899 
39 4117 2487 
40 4328 2759 
41 2491 927 
42 2828 694 
EOF
